40 40
20
3 3 5 37
4 3 0 29
3 5 17 32
6 3 4 29
7 3 17 37
8 3 22 29
9 3 8 37
10 3 30 29
12 3 10 29
16 3 24 37
40 3 0 26
4 4 0 0
14 4 26 0
22 4 4 0
3 5 20 32
4 5 23 32
5 8 0 32
12 5 5 32
13 5 27 32
40 22 0 4
